NAME : mini-n15-k4
COMMENT : Pequena instância CVRP para teste rápido >>CRIADA PELOS ALUNOS<<
TYPE : CVRP
DIMENSION : 15
EDGE_WEIGHT_TYPE : EUC_2D
CAPACITY : 80
NODE_COORD_SECTION
1 50 50
2 45 68
3 42 70
4 48 66
5 55 65
6 60 60
7 62 58
8 64 55
9 66 52
10 68 50
11 65 48
12 60 46
13 55 44
14 50 42
15 45 45
DEMAND_SECTION
1 0
2 10
3 12
4 18
5 15
6 20
7 14
8 10
9 18
10 9
11 8
12 17
13 15
14 14
15 12
DEPOT_SECTION
1
-1
EOF
